Version identifier: 22.1.1.0 | 2022-11-28 | 9160aff4d
CPXPARAM_ClockType                               1
CPXPARAM_Read_DataCheck                          1
CPXPARAM_Threads                                 1
CPXPARAM_TimeLimit                               7200
CPXPARAM_MIP_Tolerances_AbsMIPGap                0
CPXPARAM_MIP_Tolerances_MIPGap                   0
CPXPARAM_MIP_Tolerances_Integrality              0
Tried aggregator 5 times.
MIP Presolve eliminated 12992 rows and 3846 columns.
MIP Presolve modified 588 coefficients.
Aggregator did 988 substitutions.
Reduced MIP has 4904 rows, 2846 columns, and 15856 nonzeros.
Reduced MIP has 2846 binaries, 0 generals, 0 SOSs, and 0 indicators.
Presolve time = 0.05 sec. (32.32 ticks)
Found incumbent of value 4.000000 after 0.08 sec. (51.52 ticks)
Probing time = 0.01 sec. (2.85 ticks)
Tried aggregator 1 time.
Detecting symmetries...
Reduced MIP has 4904 rows, 2846 columns, and 15856 nonzeros.
Reduced MIP has 2846 binaries, 0 generals, 0 SOSs, and 0 indicators.
Presolve time = 0.02 sec. (11.31 ticks)
Probing time = 0.01 sec. (2.74 ticks)
Clique table members: 9349.
MIP emphasis: balance optimality and feasibility.
MIP search method: dynamic search.
Parallel mode: none, using 1 thread.
Root relaxation solution time = 0.08 sec. (57.88 ticks)

        Nodes                                         Cuts/
   Node  Left     Objective  IInf  Best Integer    Best Bound    ItCnt     Gap

*     0+    0                            4.0000     3800.0000              --- 
      0     0     1140.0000   650        4.0000     1140.0000     1118     --- 
*     0+    0                          508.0000     1140.0000           124.41%
      0     0     1140.0000   464      508.0000      Cuts: 34     1181  124.41%
*     0+    0                         1056.0000     1140.0000             7.95%
      0     0     1140.0000   315     1056.0000      Cuts: 88     1223    7.95%
      0     0     1140.0000   300     1056.0000      Cuts: 81     1405    7.95%
*     0+    0                         1108.0000     1140.0000             2.89%
*     0     0      integral     0     1140.0000  ZeroHalf: 22     1604    0.00%
      0     0        cutoff           1140.0000     1140.0000     1604    0.00%
Elapsed time = 0.73 sec. (504.93 ticks, tree = 0.01 MB, solutions = 5)

Clique cuts applied:  14
Implied bound cuts applied:  4
Zero-half cuts applied:  46

Root node processing (before b&c):
  Real time             =    0.74 sec. (505.44 ticks)
Sequential b&c:
  Real time             =    0.00 sec. (0.00 ticks)
                          ------------
Total (root+branch&cut) =    0.74 sec. (505.44 ticks)
Solution is feasible.

---------------------
@@@ MIP_optimal
>>> Benchmark mc2024_track1_180.cnf k 5 OPT 1140 TimeCost 3.130282163619995 TimeSolve 0.7650787830352783 TimeRead 0.02504563331604004 TimeTrans 2.3401577472686768
